(set-info :smt-lib-version 2.6)
(set-logic UF)
(set-info :source |Benchmarks from the paper: "Extending Sledgehammer with SMT Solvers" by Jasmin Blanchette, Sascha Bohme, and Lawrence C. Paulson, CADE 2011.  Translated to SMT2 by Andrew Reynolds and Morgan Deters.|)
(set-info :category "industrial")
(set-info :status unsat)
(declare-sort S1 0)
(declare-sort S2 0)
(declare-sort S3 0)
(declare-sort S4 0)
(declare-sort S5 0)
(declare-sort S6 0)
(declare-sort S7 0)
(declare-sort S8 0)
(declare-sort S9 0)
(declare-sort S10 0)
(declare-fun f1 () S1)
(declare-fun f2 () S1)
(declare-fun f3 (S2 S2) S1)
(declare-fun f4 (S3 S2) S2)
(declare-fun f5 (S4 S2) S3)
(declare-fun f6 () S4)
(declare-fun f7 () S4)
(declare-fun f8 () S4)
(declare-fun f9 () S3)
(declare-fun f10 () S3)
(declare-fun f11 () S3)
(declare-fun f12 () S2)
(declare-fun f13 () S2)
(declare-fun f14 () S2)
(declare-fun f15 () S2)
(declare-fun f16 (S2) S1)
(declare-fun f17 (S2) S1)
(declare-fun f18 () S2)
(declare-fun f19 (S5 S6) S6)
(declare-fun f20 (S7 S6) S5)
(declare-fun f21 () S7)
(declare-fun f22 () S6)
(declare-fun f23 (S8 S2) S6)
(declare-fun f24 () S8)
(declare-fun f25 () S7)
(declare-fun f26 () S6)
(declare-fun f27 (S9 S6) S2)
(declare-fun f28 (S10 S2) S9)
(declare-fun f29 () S10)
(declare-fun f30 () S2)
(declare-fun f31 (S6 S6) S1)
(assert (not (= f1 f2)))
(assert (not (= (f3 (f4 (f5 f6 (f4 (f5 f7 (f4 (f5 f8 (f4 f9 (f4 f10 (f4 f10 (f4 f11 f12))))) f13)) f14)) f14) f15) f1)))
(assert (not (= (f3 f15 (f4 (f5 f7 (f4 (f5 f8 (f4 f9 (f4 f10 (f4 f10 (f4 f11 f12))))) f13)) f14)) f1)))
(assert (not (= (f3 f15 (f4 (f5 f7 (f4 (f5 f8 (f4 f9 (f4 f10 (f4 f10 (f4 f11 f12))))) f13)) f14)) f1)))
(assert (= (f16 (f4 (f5 f7 (f4 (f5 f8 (f4 f9 (f4 f10 (f4 f10 (f4 f11 f12))))) f13)) f14)) f1))
(assert (= (f17 (f4 (f5 f8 (f4 (f5 f7 (f4 (f5 f8 (f4 f9 (f4 f10 (f4 f10 (f4 f11 f12))))) f13)) f14)) f15)) f1))
(assert (= (f3 f18 (f4 (f5 f7 (f4 (f5 f8 (f4 f9 (f4 f10 (f4 f10 (f4 f11 f12))))) f13)) f14)) f1))
(assert (forall ((?v0 S2)) (= (f4 (f5 f7 f14) (f4 f9 ?v0)) (f4 f9 (f4 (f5 f7 (f4 f11 f12)) ?v0)))))
(assert (forall ((?v0 S2)) (= (f4 (f5 f7 (f4 f9 ?v0)) f14) (f4 f9 (f4 (f5 f7 ?v0) (f4 f11 f12))))))
(assert (forall ((?v0 S2)) (= (= (f3 f14 (f4 f9 ?v0)) f1) (= (f3 (f4 f11 f12) ?v0) f1))))
(assert (forall ((?v0 S2)) (= (= (f3 (f4 f9 ?v0) f14) f1) (= (f3 ?v0 (f4 f11 f12)) f1))))
(assert (= (f4 (f5 f7 f14) f14) (f4 f9 (f4 f10 (f4 f11 f12)))))
(assert (= (f4 (f5 f7 f14) f14) (f4 f9 (f4 f10 (f4 f11 f12)))))
(assert (= (f19 (f20 f21 f22) f22) (f23 f24 (f4 f10 (f4 f11 f12)))))
(assert (forall ((?v0 S2)) (= (f4 (f5 f8 ?v0) (f4 f9 (f4 f10 (f4 f11 f12)))) (f4 (f5 f7 ?v0) ?v0))))
(assert (forall ((?v0 S2)) (= (f4 (f5 f8 ?v0) (f4 f9 (f4 f10 (f4 f11 f12)))) (f4 (f5 f7 ?v0) ?v0))))
(assert (forall ((?v0 S6)) (= (f19 (f20 f25 ?v0) (f23 f24 (f4 f10 (f4 f11 f12)))) (f19 (f20 f21 ?v0) ?v0))))
(assert (forall ((?v0 S2)) (= (f4 (f5 f8 (f4 f9 (f4 f10 (f4 f11 f12)))) ?v0) (f4 (f5 f7 ?v0) ?v0))))
(assert (forall ((?v0 S2)) (= (f4 (f5 f8 (f4 f9 (f4 f10 (f4 f11 f12)))) ?v0) (f4 (f5 f7 ?v0) ?v0))))
(assert (forall ((?v0 S6)) (= (f19 (f20 f25 (f23 f24 (f4 f10 (f4 f11 f12)))) ?v0) (f19 (f20 f21 ?v0) ?v0))))
(assert (forall ((?v0 S2)) (= (f4 (f5 f8 (f4 (f5 f7 f14) f14)) (f4 f9 ?v0)) (f4 f9 (f4 f10 ?v0)))))
(assert (forall ((?v0 S2)) (= (= (f4 (f5 f7 ?v0) ?v0) f18) (= ?v0 f18))))
(assert (= f12 f18))
(assert (not (= f18 f14)))
(assert (forall ((?v0 S2)) (= (f4 (f5 f7 ?v0) f18) ?v0)))
(assert (forall ((?v0 S2)) (= (f4 (f5 f7 f18) ?v0) ?v0)))
(assert (forall ((?v0 S2)) (= (= (f3 (f4 (f5 f7 ?v0) ?v0) f18) f1) (= (f3 ?v0 f18) f1))))
(assert (= (f4 f9 f12) f18))
(assert (= (f23 f24 f12) f26))
(assert (= (f4 f9 f12) f18))
(assert (forall ((?v0 S2)) (= (= (f3 (f4 f11 ?v0) f18) f1) (= (f3 ?v0 f18) f1))))
(assert (= (= (f3 f12 f18) f1) false))
(assert (forall ((?v0 S2)) (= (= (f3 (f4 f10 ?v0) f18) f1) (= (f3 ?v0 f18) f1))))
(assert (= f18 (f4 f9 f12)))
(assert (= (f3 f18 f14) f1))
(assert (forall ((?v0 S2) (?v1 S2) (?v2 S2)) (let ((?v_0 (f5 f8 ?v2))) (=> (= (f3 ?v0 ?v1) f1) (=> (= (f3 f18 ?v2) f1) (= (f3 (f4 ?v_0 ?v0) (f4 ?v_0 ?v1)) f1))))))
(assert (forall ((?v0 S2)) (not (= (f4 (f5 f7 (f4 (f5 f7 f14) ?v0)) ?v0) f18))))
(assert (forall ((?v0 S2) (?v1 S2)) (= (= (f3 ?v0 ?v1) f1) (= (f3 (f4 (f5 f6 ?v0) ?v1) f18) f1))))
(assert (forall ((?v0 S2)) (let ((?v_0 (f4 f9 ?v0))) (= (f4 f9 (f4 f10 ?v0)) (f4 (f5 f7 (f4 (f5 f7 f18) ?v_0)) ?v_0)))))
(assert (forall ((?v0 S2) (?v1 S2)) (=> (= (f3 f18 ?v0) f1) (= (= (f4 (f5 f8 ?v0) ?v1) f14) (and (= ?v0 f14) (= ?v1 f14))))))
(assert (forall ((?v0 S2)) (= (= (f3 (f4 (f5 f7 (f4 (f5 f7 f14) ?v0)) ?v0) f18) f1) (= (f3 ?v0 f18) f1))))
(assert (forall ((?v0 S2)) (= (= (f3 (f4 f9 ?v0) f18) f1) (= (f3 ?v0 f12) f1))))
(assert (forall ((?v0 S2)) (= (= (f3 f18 (f4 f9 ?v0)) f1) (= (f3 f12 ?v0) f1))))
(assert (forall ((?v0 S2) (?v1 S2)) (=> (= (f17 ?v0) f1) (=> (= (f17 ?v1) f1) (= (f17 (f4 (f5 f8 ?v0) ?v1)) f1)))))
(assert (forall ((?v0 S2) (?v1 S2)) (= (= (f4 f9 ?v0) (f4 f9 ?v1)) (= ?v0 ?v1))))
(assert (forall ((?v0 S2) (?v1 S6)) (let ((?v_0 (f23 f24 ?v0))) (= (= ?v_0 ?v1) (= ?v1 ?v_0)))))
(assert (forall ((?v0 S2) (?v1 S2)) (let ((?v_0 (f4 f9 ?v0))) (= (= ?v_0 ?v1) (= ?v1 ?v_0)))))
(assert (forall ((?v0 S2) (?v1 S2)) (= (= (f4 f11 ?v0) (f4 f11 ?v1)) (= ?v0 ?v1))))
(assert (= (= f12 f12) true))
(assert (forall ((?v0 S2) (?v1 S2)) (= (= (f4 f10 ?v0) (f4 f10 ?v1)) (= ?v0 ?v1))))
(assert (forall ((?v0 S2) (?v1 S2)) (or (= (f3 ?v0 ?v1) f1) (or (= ?v0 ?v1) (= (f3 ?v1 ?v0) f1)))))
(assert (forall ((?v0 S2) (?v1 S2) (?v2 S2)) (let ((?v_0 (f5 f8 ?v0))) (= (f4 (f5 f8 (f4 ?v_0 ?v1)) ?v2) (f4 ?v_0 (f4 (f5 f8 ?v1) ?v2))))))
(assert (forall ((?v0 S2) (?v1 S2)) (= (f4 (f5 f8 ?v0) ?v1) (f4 (f5 f8 ?v1) ?v0))))
(assert (forall ((?v0 S2)) (= (f4 f9 ?v0) ?v0)))
(assert (forall ((?v0 S2) (?v1 S2) (?v2 S2)) (let ((?v_0 (f5 f7 ?v0))) (= (f4 (f5 f7 (f4 ?v_0 ?v1)) ?v2) (f4 ?v_0 (f4 (f5 f7 ?v1) ?v2))))))
(assert (forall ((?v0 S2) (?v1 S2) (?v2 S2)) (let ((?v_1 (f5 f7 ?v0)) (?v_0 (f5 f7 ?v1))) (= (f4 ?v_1 (f4 ?v_0 ?v2)) (f4 ?v_0 (f4 ?v_1 ?v2))))))
(assert (forall ((?v0 S2) (?v1 S2)) (= (f4 (f5 f7 ?v0) ?v1) (f4 (f5 f7 ?v1) ?v0))))
(assert (forall ((?v0 S2)) (= (= (f4 f11 ?v0) f12) false)))
(assert (forall ((?v0 S2)) (= (= f12 (f4 f11 ?v0)) false)))
(assert (forall ((?v0 S2) (?v1 S2)) (= (= (f4 f11 ?v0) (f4 f10 ?v1)) false)))
(assert (forall ((?v0 S2) (?v1 S2)) (= (= (f4 f10 ?v0) (f4 f11 ?v1)) false)))
(assert (forall ((?v0 S2)) (= (= (f4 f10 ?v0) f12) (= ?v0 f12))))
(assert (forall ((?v0 S2)) (= (= f12 (f4 f10 ?v0)) (= f12 ?v0))))
(assert (= (f4 f10 f12) f12))
(assert (forall ((?v0 S2) (?v1 S2)) (= (= (f3 (f4 f11 ?v0) (f4 f11 ?v1)) f1) (= (f3 ?v0 ?v1) f1))))
(assert (forall ((?v0 S2) (?v1 S2)) (= (= (f3 (f4 f11 ?v0) (f4 f11 ?v1)) f1) (= (f3 ?v0 ?v1) f1))))
(assert (= (= (f3 f12 f12) f1) false))
(assert (forall ((?v0 S2) (?v1 S2)) (= (= (f3 (f4 f10 ?v0) (f4 f10 ?v1)) f1) (= (f3 ?v0 ?v1) f1))))
(assert (forall ((?v0 S2) (?v1 S2)) (= (= (f3 (f4 f10 ?v0) (f4 f10 ?v1)) f1) (= (f3 ?v0 ?v1) f1))))
(assert (forall ((?v0 S2)) (= (f4 (f5 f8 f12) ?v0) f12)))
(assert (forall ((?v0 S2) (?v1 S2)) (= (f4 (f5 f8 (f4 f10 ?v0)) ?v1) (f4 f10 (f4 (f5 f8 ?v0) ?v1)))))
(assert (forall ((?v0 S2)) (= (f4 (f5 f7 ?v0) f12) ?v0)))
(assert (forall ((?v0 S2)) (= (f4 (f5 f7 f12) ?v0) ?v0)))
(assert (forall ((?v0 S2) (?v1 S2)) (= (f4 (f5 f7 (f4 f10 ?v0)) (f4 f10 ?v1)) (f4 f10 (f4 (f5 f7 ?v0) ?v1)))))
(assert (forall ((?v0 S2)) (= (f4 f10 ?v0) (f4 (f5 f7 ?v0) ?v0))))
(assert (forall ((?v0 S2) (?v1 S2)) (= (= (f3 (f4 f9 ?v0) (f4 f9 ?v1)) f1) (= (f3 ?v0 ?v1) f1))))
(assert (forall ((?v0 S2)) (= (f4 (f5 f8 ?v0) f14) ?v0)))
(assert (forall ((?v0 S2)) (= (f4 (f5 f8 f14) ?v0) ?v0)))
(assert (forall ((?v0 S2) (?v1 S2) (?v2 S2)) (=> (= (f3 ?v0 ?v1) f1) (= (f3 (f4 (f5 f7 ?v0) ?v2) (f4 (f5 f7 ?v1) ?v2)) f1))))
(assert (forall ((?v0 S2) (?v1 S2)) (= (f4 (f5 f8 (f4 f9 ?v0)) (f4 f9 ?v1)) (f4 f9 (f4 (f5 f8 ?v0) ?v1)))))
(assert (forall ((?v0 S2)) (= (f4 (f5 f6 ?v0) f12) ?v0)))
(assert (forall ((?v0 S2) (?v1 S2)) (= (f4 (f5 f6 (f4 f10 ?v0)) (f4 f10 ?v1)) (f4 f10 (f4 (f5 f6 ?v0) ?v1)))))
(assert (forall ((?v0 S2) (?v1 S2) (?v2 S2)) (= (f4 (f5 f8 (f4 (f5 f7 ?v0) ?v1)) ?v2) (f4 (f5 f7 (f4 (f5 f8 ?v0) ?v2)) (f4 (f5 f8 ?v1) ?v2)))))
(assert (forall ((?v0 S2) (?v1 S2) (?v2 S2)) (let ((?v_0 (f5 f8 ?v0))) (= (f4 ?v_0 (f4 (f5 f7 ?v1) ?v2)) (f4 (f5 f7 (f4 ?v_0 ?v1)) (f4 ?v_0 ?v2))))))
(assert (forall ((?v0 S2) (?v1 S2)) (= (f4 (f5 f7 (f4 f9 ?v0)) (f4 f9 ?v1)) (f4 f9 (f4 (f5 f7 ?v0) ?v1)))))
(assert (forall ((?v0 S2) (?v1 S2) (?v2 S2)) (= (f4 (f5 f8 (f4 (f5 f6 ?v0) ?v1)) ?v2) (f4 (f5 f6 (f4 (f5 f8 ?v0) ?v2)) (f4 (f5 f8 ?v1) ?v2)))))
(assert (forall ((?v0 S2) (?v1 S2) (?v2 S2)) (let ((?v_0 (f5 f8 ?v0))) (= (f4 ?v_0 (f4 (f5 f6 ?v1) ?v2)) (f4 (f5 f6 (f4 ?v_0 ?v1)) (f4 ?v_0 ?v2))))))
(assert (forall ((?v0 S2) (?v1 S2) (?v2 S2)) (let ((?v_0 (f4 f9 ?v2))) (= (f4 (f5 f8 (f4 (f5 f7 ?v0) ?v1)) ?v_0) (f4 (f5 f7 (f4 (f5 f8 ?v0) ?v_0)) (f4 (f5 f8 ?v1) ?v_0))))))
(assert (forall ((?v0 S6) (?v1 S6) (?v2 S2)) (let ((?v_0 (f23 f24 ?v2))) (= (f19 (f20 f25 (f19 (f20 f21 ?v0) ?v1)) ?v_0) (f19 (f20 f21 (f19 (f20 f25 ?v0) ?v_0)) (f19 (f20 f25 ?v1) ?v_0))))))
(assert (forall ((?v0 S2) (?v1 S2) (?v2 S2)) (let ((?v_0 (f5 f8 (f4 f9 ?v0)))) (= (f4 ?v_0 (f4 (f5 f7 ?v1) ?v2)) (f4 (f5 f7 (f4 ?v_0 ?v1)) (f4 ?v_0 ?v2))))))
(assert (forall ((?v0 S2) (?v1 S6) (?v2 S6)) (let ((?v_0 (f20 f25 (f23 f24 ?v0)))) (= (f19 ?v_0 (f19 (f20 f21 ?v1) ?v2)) (f19 (f20 f21 (f19 ?v_0 ?v1)) (f19 ?v_0 ?v2))))))
(assert (forall ((?v0 S2) (?v1 S2) (?v2 S2)) (let ((?v_0 (f4 f9 ?v2))) (= (f4 (f5 f8 (f4 (f5 f6 ?v0) ?v1)) ?v_0) (f4 (f5 f6 (f4 (f5 f8 ?v0) ?v_0)) (f4 (f5 f8 ?v1) ?v_0))))))
(assert (forall ((?v0 S2) (?v1 S2) (?v2 S2)) (let ((?v_0 (f5 f8 (f4 f9 ?v0)))) (= (f4 ?v_0 (f4 (f5 f6 ?v1) ?v2)) (f4 (f5 f6 (f4 ?v_0 ?v1)) (f4 ?v_0 ?v2))))))
(assert (forall ((?v0 S2)) (= (f4 (f5 f7 (f4 f9 f12)) ?v0) ?v0)))
(assert (forall ((?v0 S2)) (= (f4 (f5 f7 ?v0) (f4 f9 f12)) ?v0)))
(assert (forall ((?v0 S2) (?v1 S2)) (= (= (f3 (f4 f9 ?v0) (f4 f9 ?v1)) f1) (= (f3 ?v0 ?v1) f1))))
(assert (forall ((?v0 S2) (?v1 S2) (?v2 S2)) (= (f4 (f5 f8 (f4 f9 ?v0)) (f4 (f5 f8 (f4 f9 ?v1)) ?v2)) (f4 (f5 f8 (f4 f9 (f4 (f5 f8 ?v0) ?v1))) ?v2))))
(assert (forall ((?v0 S2) (?v1 S2)) (= (f4 (f5 f8 (f4 f9 ?v0)) (f4 f9 ?v1)) (f4 f9 (f4 (f5 f8 ?v0) ?v1)))))
(assert (forall ((?v0 S2) (?v1 S2)) (= (f4 f9 (f4 (f5 f8 ?v0) ?v1)) (f4 (f5 f8 (f4 f9 ?v0)) (f4 f9 ?v1)))))
(assert (forall ((?v0 S2) (?v1 S2) (?v2 S2)) (= (f4 (f5 f7 (f4 f9 ?v0)) (f4 (f5 f7 (f4 f9 ?v1)) ?v2)) (f4 (f5 f7 (f4 f9 (f4 (f5 f7 ?v0) ?v1))) ?v2))))
(assert (forall ((?v0 S2) (?v1 S2)) (= (f4 (f5 f7 (f4 f9 ?v0)) (f4 f9 ?v1)) (f4 f9 (f4 (f5 f7 ?v0) ?v1)))))
(assert (forall ((?v0 S2) (?v1 S2)) (= (f4 f9 (f4 (f5 f7 ?v0) ?v1)) (f4 (f5 f7 (f4 f9 ?v0)) (f4 f9 ?v1)))))
(assert (forall ((?v0 S2)) (= (= (f3 (f4 f11 ?v0) f12) f1) (= (f3 ?v0 f12) f1))))
(assert (forall ((?v0 S2) (?v1 S2)) (= (= (f3 (f4 f11 ?v0) (f4 f10 ?v1)) f1) (= (f3 ?v0 ?v1) f1))))
(assert (forall ((?v0 S2) (?v1 S2)) (= (= (f3 (f4 f11 ?v0) (f4 f10 ?v1)) f1) (= (f3 ?v0 ?v1) f1))))
(assert (forall ((?v0 S2)) (= (= (f3 (f4 f10 ?v0) f12) f1) (= (f3 ?v0 f12) f1))))
(assert (forall ((?v0 S2)) (= (= (f3 f12 (f4 f10 ?v0)) f1) (= (f3 f12 ?v0) f1))))
(assert (forall ((?v0 S2) (?v1 S2)) (= (f4 f9 (f4 (f5 f6 ?v0) ?v1)) (f4 (f5 f6 (f4 f9 ?v0)) (f4 f9 ?v1)))))
(assert (forall ((?v0 S2) (?v1 S2)) (= (f4 (f5 f7 (f4 f11 ?v0)) (f4 f10 ?v1)) (f4 f11 (f4 (f5 f7 ?v0) ?v1)))))
(assert (forall ((?v0 S2) (?v1 S2)) (= (f4 (f5 f7 (f4 f10 ?v0)) (f4 f11 ?v1)) (f4 f11 (f4 (f5 f7 ?v0) ?v1)))))
(assert (forall ((?v0 S2)) (= (f4 f11 ?v0) (f4 (f5 f7 (f4 (f5 f7 f14) ?v0)) ?v0))))
(assert (forall ((?v0 S2) (?v1 S2)) (= (f4 (f5 f6 (f4 f11 ?v0)) (f4 f11 ?v1)) (f4 f10 (f4 (f5 f6 ?v0) ?v1)))))
(assert (forall ((?v0 S2) (?v1 S2)) (= (f4 (f5 f6 (f4 f11 ?v0)) (f4 f10 ?v1)) (f4 f11 (f4 (f5 f6 ?v0) ?v1)))))
(assert (forall ((?v0 S2)) (let ((?v_0 (f5 f6 f12))) (= (f4 ?v_0 (f4 f10 ?v0)) (f4 f10 (f4 ?v_0 ?v0))))))
(assert (forall ((?v0 S2) (?v1 S2)) (= (= (f3 ?v0 (f4 (f5 f7 ?v1) f14)) f1) (or (= (f3 ?v0 ?v1) f1) (= ?v0 ?v1)))))
(assert (forall ((?v0 S2)) (let ((?v_0 (f4 f9 ?v0))) (= (f4 f9 (f4 f11 ?v0)) (f4 (f5 f7 (f4 (f5 f7 f14) ?v_0)) ?v_0)))))
(assert (forall ((?v0 S2)) (= (f4 (f5 f8 (f4 f9 (f4 f11 f12))) ?v0) ?v0)))
(assert (forall ((?v0 S2)) (= (f4 (f5 f8 ?v0) (f4 f9 (f4 f11 f12))) ?v0)))
(assert (= (f4 f9 (f4 f11 f12)) f14))
(assert (= (f23 f24 (f4 f11 f12)) f22))
(assert (= (f4 f9 (f4 f11 f12)) f14))
(assert (forall ((?v0 S2) (?v1 S2) (?v2 S2)) (= (f4 (f5 f7 (f4 f9 ?v0)) (f4 (f5 f6 (f4 f9 ?v1)) ?v2)) (f4 (f5 f6 (f4 f9 (f4 (f5 f7 ?v0) ?v1))) ?v2))))
(assert (= f14 (f4 f9 (f4 f11 f12))))
(assert (forall ((?v0 S2) (?v1 S2)) (= (f4 (f5 f8 (f4 f11 ?v0)) ?v1) (f4 (f5 f7 (f4 f10 (f4 (f5 f8 ?v0) ?v1))) ?v1))))
(assert (= (f16 (f4 f9 (f4 f10 (f4 f11 f12)))) f1))
(assert (let ((?v_0 (f4 f10 (f4 f11 f12)))) (= (f4 (f5 f7 (f27 (f28 f29 f30) (f23 f24 ?v_0))) f14) (f4 (f5 f8 (f4 (f5 f7 (f4 (f5 f8 (f4 f9 (f4 f10 ?v_0))) f13)) f14)) f15))))
(assert (forall ((?v0 S2) (?v1 S2)) (let ((?v_0 (f4 (f5 f6 ?v1) f14))) (=> (= (f3 f18 ?v0) f1) (=> (= (f3 ?v0 ?v1) f1) (=> (not (= ?v0 ?v_0)) (= (f3 ?v0 ?v_0) f1)))))))
(assert (= f14 (f4 f9 (f4 f11 f12))))
(assert (forall ((?v0 S2)) (= (f4 (f5 f6 (f4 (f5 f8 ?v0) ?v0)) f14) (f4 (f5 f8 (f4 (f5 f7 ?v0) f14)) (f4 (f5 f6 ?v0) f14)))))
(assert (forall ((?v0 S2) (?v1 S2) (?v2 S2) (?v3 S2) (?v4 S2)) (= (= (f3 (f4 (f5 f7 (f4 (f5 f8 ?v0) ?v1)) ?v2) (f4 (f5 f7 (f4 (f5 f8 ?v3) ?v1)) ?v4)) f1) (= (f3 (f4 (f5 f7 (f4 (f5 f8 (f4 (f5 f6 ?v0) ?v3)) ?v1)) ?v2) ?v4) f1))))
(assert (forall ((?v0 S2) (?v1 S2) (?v2 S2) (?v3 S2) (?v4 S2)) (= (= (f3 (f4 (f5 f7 (f4 (f5 f8 ?v0) ?v1)) ?v2) (f4 (f5 f7 (f4 (f5 f8 ?v3) ?v1)) ?v4)) f1) (= (f3 ?v2 (f4 (f5 f7 (f4 (f5 f8 (f4 (f5 f6 ?v3) ?v0)) ?v1)) ?v4)) f1))))
(assert (= (f3 f18 (f4 (f5 f7 f14) f14)) f1))
(assert (= (f31 f26 (f19 (f20 f21 f22) f22)) f1))
(assert (forall ((?v0 S2) (?v1 S2)) (= (= (f3 f18 (f4 (f5 f7 (f4 (f5 f8 ?v0) ?v0)) (f4 (f5 f8 ?v1) ?v1))) f1) (or (not (= ?v0 f18)) (not (= ?v1 f18))))))
(assert (forall ((?v0 S2) (?v1 S2)) (not (= (f3 (f4 (f5 f7 (f4 (f5 f8 ?v0) ?v0)) (f4 (f5 f8 ?v1) ?v1)) f18) f1))))
(assert (=> (forall ((?v0 S2)) (let ((?v_0 (f4 f10 (f4 f11 f12)))) (=> (= (f4 (f5 f7 (f27 (f28 f29 f30) (f23 f24 ?v_0))) f14) (f4 (f5 f8 (f4 (f5 f7 (f4 (f5 f8 (f4 f9 (f4 f10 ?v_0))) f13)) f14)) ?v0)) false))) false))
(assert (forall ((?v0 S2) (?v1 S6) (?v2 S6)) (let ((?v_0 (f28 f29 ?v0))) (= (f27 (f28 f29 (f27 ?v_0 ?v1)) ?v2) (f27 ?v_0 (f19 (f20 f25 ?v1) ?v2))))))
(check-sat)
(exit)
